# 1 amount of Vehicles
param nv :=
5 ;

# 2 amount of Orders
param no :=
9 ;

# 3 amount of locations
param nl :=
6 ;

# 4 amount of factories
param nf :=
2 ;

# 5 factory sets
set N_f_2[1] :=  4 ;
set N_f_2[2] :=  5 6 ;

# 6 factory stop capacities
param H :=
1 1
2 1 ;

# 7 pickup locations for each order
param L_pd :=
1 1
2 2
3 3
4 3
5 2
6 3
7 2
8 2
9 2 ;

# 8 delivery locations for each order
param L_dd :=
1 6
2 5
3 4
4 6
5 5
6 5
7 5
8 5
9 4 ;

# 9 location sets
set L_2[1] :=  1 ;
set L_2[2] :=  2 5 7 8 9 ;
set L_2[3] :=  3 4 6 ;
set L_2[4] :=  3 9 ;
set L_2[5] :=  2 5 6 7 8 ;
set L_2[6] :=  1 4 ;

# 10 order weights
param Q_kg_2 :=
1 1852.2521948928763
2 64.19709862664597
3 1687.2350695803912
4 1876.0784815529946
5 2984.3925943034365
6 784.353013427298
7 1136.6484123643338
8 1811.1464085047453
9 20880.884209401473 ;

# 11 order volumes
param Q_vol_2 :=
1 10.825242282059865
2 1.2513466326320162
3 37.05335776455868
4 20.3848738810272
5 51.037651558110724
6 7.713681486775219
7 5.728535891486008
8 15.494647890116749
9 63.57086689783257 ;

# 12 Locations vehicle can visit
set N_v_2[1] := 1 2 3 4 5 6 ;
set N_v_2[2] := 1 2 3 4 5 6 ;
set N_v_2[3] := 1 2 3 4 5 6 ;
set N_v_2[4] := 1 2 3 4 5 6 ;
set N_v_2[5] := 1 2 3 4 5 6 ;

# 13 Orders vehicles can pick up
set N_vp_2[1] := 1 2 3 4 5 6 7 8 ;
set N_vp_2[2] := 1 2 3 4 5 6 7 8 ;
set N_vp_2[3] := 1 2 3 4 5 6 7 8 9 ;
set N_vp_2[4] := 1 2 3 4 5 6 7 8 9 ;
set N_vp_2[5] := 1 2 3 4 5 6 7 8 9 ;

# 14 vehicle weight capacity
param K_kg :=
1 12000.0
2 18000.0
3 24000.0
4 24000.0
5 24000.0 ;

# 15 vehicle volume capacity
param K_vol :=
1 55.0
2 71.0
3 102.0
4 102.0
5 102.0 ;

# 16 amount of distance intervals
param na :=
1 2
2 2
3 2
4 2
5 2 ;

# 17 amount of weight intervals
param nb :=
1 4
2 2
3 2
4 2
5 2 ;

# 18 Distance intervals
param B_2 :=
1 1 1500.0
1 2 9999999.0
2 1 1500.0
2 2 9999999.0
3 1 1500.0
3 2 9999999.0
4 1 1500.0
4 2 9999999.0
5 1 1500.0
5 2 9999999.0 ;

# 19 Weight intervals
param Z_2 :=
1 1 500.0
1 2 1500.0
1 3 5000.0
1 4 24000.0
2 1 1500.0
2 2 24000.0
2 3 . 
2 4 . 
3 1 1500.0
3 2 24000.0
3 3 . 
3 4 . 
4 1 1500.0
4 2 24000.0
4 3 . 
4 4 . 
5 1 1500.0
5 2 24000.0
5 3 . 
5 4 . ;

# 20 cost per kilometer
param C_km :=
1 1 1 0.07105957031249999
1 1 2 0.11574494469165798
1 1 3 0.19662278014636098
1 1 4 0.3723393221028571
1 2 1 0.047373046875000005
1 2 2 0.07716329646110535
1 2 3 0.13108185343090736
1 2 4 0.2482262147352381
2 1 1 0.13503576880693438
2 1 2 0.43439587578666683
2 1 3 . 
2 1 4 . 
2 2 1 0.08487962610721587
2 2 2 0.2730488362087619
2 2 3 . 
2 2 4 . 
3 1 1 0.1543265929222107
3 1 2 0.4964524294704762
3 1 3 . 
3 1 4 . 
3 2 1 0.09645412057638168
3 2 2 0.3102827684190475
3 2 3 . 
3 2 4 . 
4 1 1 0.1543265929222107
4 1 2 0.4964524294704762
4 1 3 . 
4 1 4 . 
4 2 1 0.09645412057638168
4 2 2 0.3102827684190475
4 2 3 . 
4 2 4 . 
5 1 1 0.1543265929222107
5 1 2 0.4964524294704762
5 1 3 . 
5 1 4 . 
5 2 1 0.09645412057638168
5 2 2 0.3102827684190475
5 2 3 . 
5 2 4 . ;

# 21 cost per kilo
param C_kg :=
1 1 1 0.008544921875000003
1 1 2 0.004564315080642704
1 1 3 0.0022787031026382486
1 1 4 8.114541859150757E-4
1 2 1 0.003417968750000001
1 2 2 0.0018257260322570804
1 2 3 9.114812410552988E-4
1 2 4 3.245816743660299E-4
2 1 1 0.004564315080642704
2 1 2 8.114541859150757E-4
2 1 3 . 
2 1 4 . 
2 2 1 0.0018257260322570804
2 2 2 3.245816743660299E-4
2 2 3 . 
2 2 4 . 
3 1 1 0.004564315080642704
3 1 2 8.114541859150757E-4
3 1 3 . 
3 1 4 . 
3 2 1 0.0018257260322570804
3 2 2 3.245816743660299E-4
3 2 3 . 
3 2 4 . 
4 1 1 0.004564315080642704
4 1 2 8.114541859150757E-4
4 1 3 . 
4 1 4 . 
4 2 1 0.0018257260322570804
4 2 2 3.245816743660299E-4
4 2 3 . 
4 2 4 . 
5 1 1 0.004564315080642704
5 1 2 8.114541859150757E-4
5 1 3 . 
5 1 4 . 
5 2 1 0.0018257260322570804
5 2 2 3.245816743660299E-4
5 2 3 . 
5 2 4 . ;

# 22 fixed costs
param C_fix :=
1 1 1 60.75
1 1 2 136.6875
1 1 3 293.625
1 1 4 764.94375
1 2 1 461.3203125
1 2 2 1037.970703125
1 2 3 2229.71484375
1 2 4 5808.7916015625
2 1 1 159.90504192000003
2 1 2 894.8759938560002
2 1 3 . 
2 1 4 . 
2 2 1 1477.3559627052468
2 2 2 8267.721702398621
2 2 3 . 
2 2 4 . 
3 1 1 195.31660031999994
3 1 2 1093.0495669759996
3 1 3 . 
3 1 4 . 
3 2 1 2317.1726648638028
3 2 2 12967.584802256317
3 2 3 . 
3 2 4 . 
4 1 1 195.31660031999994
4 1 2 1093.0495669759996
4 1 3 . 
4 1 4 . 
4 2 1 2317.1726648638028
4 2 2 12967.584802256317
4 2 3 . 
4 2 4 . 
5 1 1 195.31660031999994
5 1 2 1093.0495669759996
5 1 3 . 
5 1 4 . 
5 2 1 2317.1726648638028
5 2 2 12967.584802256317
5 2 3 . 
5 2 4 . ;

# 23 stopping costs
param C_stop_2 :=
1 1 29.0
1 2 26.0
1 3 24.0
1 4 21.0
1 5 20.0
1 6 20.0
2 1 43.5
2 2 39.0
2 3 36.0
2 4 31.5
2 5 30.0
2 6 30.0
3 1 58.0
3 2 52.0
3 3 48.0
3 4 42.0
3 5 40.0
3 6 40.0
4 1 58.0
4 2 52.0
4 3 48.0
4 4 42.0
4 5 40.0
4 6 40.0
5 1 58.0
5 2 52.0
5 3 48.0
5 4 42.0
5 5 40.0
5 6 40.0 ;

# 24 cost of no transport
param C_2 :=
1 61854.45444063243
2 34400.00782854228
3 85895.40770470453
4 66887.86768366153
5 113388.26771078889
6 43353.80703186695
7 49601.71022477315
8 66112.802184808
9 292446.79103117227 ;

# 25 timewindow amounts at location
param pi_2 :=
1 3
2 3
3 3
4 4
5 4
6 4 ;

# 26 timewindow lower bounds
param T_l_2 :=
1 1 0.0
1 2 360.0
1 3 1440.0
1 4 . 
2 1 120.0
2 2 420.0
2 3 1560.0
2 4 . 
3 1 120.0
3 2 1560.0
3 3 3000.0
3 4 . 
4 1 120.0
4 2 1560.0
4 3 3000.0
4 4 4440.0
5 1 0.0
5 2 1440.0
5 3 2880.0
5 4 4320.0
6 1 120.0
6 2 1560.0
6 3 3000.0
6 4 4440.0 ;

# 27 timewindow upper bounds
param T_u_2 :=
1 1 240.0
1 2 600.0
1 3 1680.0
1 4 . 
2 1 300.0
2 2 600.0
2 3 1740.0
2 4 . 
3 1 360.0
3 2 1740.0
3 3 3180.0
3 4 . 
4 1 420.0
4 2 1740.0
4 3 3180.0
4 4 4620.0
5 1 300.0
5 2 1740.0
5 3 3180.0
5 4 4620.0
6 1 420.0
6 2 1740.0
6 3 3180.0
6 4 4620.0 ;

# 28 Travel time
param T_2 :=
1 1 1 . 
1 1 2 1.118033988749895
1 1 3 233.9198069926302
1 1 4 1.5811388300841895
1 1 5 246.19462048765814
1 1 6 271.44483682739656
1 2 1 1.118033988749895
1 2 2 . 
1 2 3 244.77751381884218
1 2 4 1.118033988749895
1 2 5 215.44483682739659
1 2 6 216.70074269153906
1 3 1 233.9198069926302
1 3 2 244.77751381884218
1 3 3 . 
1 3 4 264.49498740569896
1 3 5 160.94325684697918
1 3 6 154.0368164517398
1 4 1 1.5811388300841895
1 4 2 1.118033988749895
1 4 3 264.49498740569896
1 4 4 . 
1 4 5 282.53400678648796
1 4 6 258.78858405547237
1 5 1 246.19462048765814
1 5 2 215.44483682739659
1 5 3 160.94325684697918
1 5 4 282.53400678648796
1 5 5 . 
1 5 6 1.118033988749895
1 6 1 271.44483682739656
1 6 2 216.70074269153906
1 6 3 154.0368164517398
1 6 4 258.78858405547237
1 6 5 1.118033988749895
1 6 6 . 
2 1 1 . 
2 1 2 1.1459848384686422
2 1 3 239.76780216744595
2 1 4 1.6206673008362942
2 1 5 252.34948599984958
2 1 6 278.23095774808144
2 2 1 1.1459848384686422
2 2 2 . 
2 2 3 250.8969516643132
2 2 4 1.1459848384686422
2 2 5 220.8309577480815
2 2 6 222.11826125882752
2 3 1 239.76780216744595
2 3 2 250.8969516643132
2 3 3 . 
2 3 4 271.10736209084143
2 3 5 164.96683826815365
2 3 6 157.8877368630333
2 4 1 1.6206673008362942
2 4 2 1.1459848384686422
2 4 3 271.10736209084143
2 4 4 . 
2 4 5 289.5973569561501
2 4 6 265.25829865685915
2 5 1 252.34948599984958
2 5 2 220.8309577480815
2 5 3 164.96683826815365
2 5 4 289.5973569561501
2 5 5 . 
2 5 6 1.1459848384686422
2 6 1 278.23095774808144
2 6 2 222.11826125882752
2 6 3 157.8877368630333
2 6 4 265.25829865685915
2 6 5 1.1459848384686422
2 6 6 . 
3 1 1 . 
3 1 2 1.1459848384686422
3 1 3 239.76780216744595
3 1 4 1.6206673008362942
3 1 5 252.34948599984958
3 1 6 278.23095774808144
3 2 1 1.1459848384686422
3 2 2 . 
3 2 3 250.8969516643132
3 2 4 1.1459848384686422
3 2 5 220.8309577480815
3 2 6 222.11826125882752
3 3 1 239.76780216744595
3 3 2 250.8969516643132
3 3 3 . 
3 3 4 271.10736209084143
3 3 5 164.96683826815365
3 3 6 157.8877368630333
3 4 1 1.6206673008362942
3 4 2 1.1459848384686422
3 4 3 271.10736209084143
3 4 4 . 
3 4 5 289.5973569561501
3 4 6 265.25829865685915
3 5 1 252.34948599984958
3 5 2 220.8309577480815
3 5 3 164.96683826815365
3 5 4 289.5973569561501
3 5 5 . 
3 5 6 1.1459848384686422
3 6 1 278.23095774808144
3 6 2 222.11826125882752
3 6 3 157.8877368630333
3 6 4 265.25829865685915
3 6 5 1.1459848384686422
3 6 6 . 
4 1 1 . 
4 1 2 1.1739356881873897
4 1 3 245.61579734226174
4 1 4 1.660195771588399
4 1 5 258.50435151204107
4 1 6 285.0170786687664
4 2 1 1.1739356881873897
4 2 2 . 
4 2 3 257.0163895097843
4 2 4 1.1739356881873897
4 2 5 226.21707866876642
4 2 6 227.53577982611603
4 3 1 245.61579734226174
4 3 2 257.0163895097843
4 3 3 . 
4 3 4 277.7197367759839
4 3 5 168.99041968932815
4 3 6 161.7386572743268
4 4 1 1.660195771588399
4 4 2 1.1739356881873897
4 4 3 277.7197367759839
4 4 4 . 
4 4 5 296.6607071258124
4 4 6 271.728013258246
4 5 1 258.50435151204107
4 5 2 226.21707866876642
4 5 3 168.99041968932815
4 5 4 296.6607071258124
4 5 5 . 
4 5 6 1.1739356881873897
4 6 1 285.0170786687664
4 6 2 227.53577982611603
4 6 3 161.7386572743268
4 6 4 271.728013258246
4 6 5 1.1739356881873897
4 6 6 . 
5 1 1 . 
5 1 2 1.1739356881873897
5 1 3 245.61579734226174
5 1 4 1.660195771588399
5 1 5 258.50435151204107
5 1 6 285.0170786687664
5 2 1 1.1739356881873897
5 2 2 . 
5 2 3 257.0163895097843
5 2 4 1.1739356881873897
5 2 5 226.21707866876642
5 2 6 227.53577982611603
5 3 1 245.61579734226174
5 3 2 257.0163895097843
5 3 3 . 
5 3 4 277.7197367759839
5 3 5 168.99041968932815
5 3 6 161.7386572743268
5 4 1 1.660195771588399
5 4 2 1.1739356881873897
5 4 3 277.7197367759839
5 4 4 . 
5 4 5 296.6607071258124
5 4 6 271.728013258246
5 5 1 258.50435151204107
5 5 2 226.21707866876642
5 5 3 168.99041968932815
5 5 4 296.6607071258124
5 5 5 . 
5 5 6 1.1739356881873897
5 6 1 285.0170786687664
5 6 2 227.53577982611603
5 6 3 161.7386572743268
5 6 4 271.728013258246
5 6 5 1.1739356881873897
5 6 6 . ;

# 29 Travel distance
param D_2 :=
1 1 . 
1 2 2.23606797749979
1 3 395.8396139852604
1 4 3.1622776601683795
1 5 416.3892409753163
1 6 416.8896736547932
2 1 2.23606797749979
2 2 . 
2 3 397.5550276376844
2 4 2.23606797749979
2 5 416.8896736547932
2 6 417.4014853830781
3 1 395.8396139852604
3 2 397.5550276376844
3 3 . 
3 4 398.989974811398
3 5 259.88651369395836
3 6 258.0736329034797
4 1 3.1622776601683795
4 2 2.23606797749979
4 3 398.989974811398
4 4 . 
4 5 419.068013572976
4 6 419.57716811094474
5 1 416.3892409753163
5 2 416.8896736547932
5 3 259.88651369395836
5 4 419.068013572976
5 5 . 
5 6 2.23606797749979
6 1 416.8896736547932
6 2 417.4014853830781
6 3 258.0736329034797
6 4 419.57716811094474
6 5 2.23606797749979
6 6 . ;

